NAME : Euclidean Random Tour : n = 100, sample = 19 
COMMENT : Coordinates are generated uniformly sampled from [0, 100000] x [0, 100000] 
DIMENSION : 100 
EDGE_WEIGHT_TYPE : EUC_2D 
TOUR_SECTION 
1
5
3
79
91
43
59
60
25
7
81
50
18
98
15
9
44
37
42
31
11
8
58
76
52
92
74
49
78
45
67
89
87
2
54
97
34
32
53
12
64
6
68
61
14
23
73
84
24
33
4
20
47
21
96
38
70
77
40
63
90
93
41
16
57
82
100
80
35
27
65
39
13
99
95
88
62
72
69
46
55
51
36
75
22
28
19
56
26
71
30
29
86
83
17
48
85
66
10
94
-1
